(set-info :Origin "This instance was generated by: BanditFuzz-- an RL fuzzer for SMT solvers" )
(set-info :Author "Joe Scott, Fed Mora, Vijay Ganesh" )
(set-info :Contact "Joe Scott, joseph.scott@uwaterloo.ca")
(set-logic QF_BV)
(declare-const bool_0 Bool)
(declare-const bool_1 Bool)
(declare-const bool_2 Bool)
(declare-const bool_3 Bool)
(declare-const bool_4 Bool)
(declare-const bv_0 (_ BitVec 32))
(declare-const bv_1 (_ BitVec 32))
(declare-const bv_2 (_ BitVec 32))
(declare-const bv_3 (_ BitVec 32))
(declare-const bv_4 (_ BitVec 32))
(assert (bvsgt (bvadd (bvnand bv_1 #xc8581484 ) (bvurem #xa91a14c3  #xa62f40e7 )) (bvurem (bvxnor bv_2 bv_2) (bvmul #x342ba8e9  bv_3))))
(assert (and (xor (or true true) (bvsge #x922500c9  bv_3)) (bvugt (bvxnor bv_2 #x3fbe0f8f ) (bvxor #xe16b9e57  #xee2299e8 ))))
(assert (bvugt (bvnand (bvor bv_2 #x2a57b475 ) (bvsrem bv_0 #x5019b052 )) (bvurem (bvnand #x8ab5429a  #xb05cc2a5 ) (bvudiv bv_0 #xc610a7a3 ))))
(assert (bvult (bvshl (bvsub bv_1 bv_1) (bvudiv bv_4 bv_2)) (bvxnor (bvsrem #x7d1e0c77  bv_3) (bvadd bv_3 #x5d2ddcb1 ))))
(assert (bvule (bvadd (bvlshr bv_4 bv_0) (bvurem bv_4 #x62d1f260 )) (bvnand (bvsmod #x4c0acae3  #xe14684d8 ) (bvmul bv_1 #x47e8bbc6 ))))
(check-sat)
(exit)
